c Cin <-> 474
p cnf 474 1326
1 345 -2 0
1 -345 2 0
-1 345 2 0
-1 -345 -2 0
1 0
2 173 -19 0
2 -173 19 0
-2 173 19 0
-2 -173 -19 0
3 -4 0
3 -191 0
-3 191 4 0
-4 27 0
-4 159 0
4 -159 -27 0
5 -6 0
5 -193 0
-5 193 6 0
-6 23 0
-6 161 0
6 -161 -23 0
7 -8 0
7 -195 0
-7 195 8 0
-8 29 0
-8 163 0
8 -163 -29 0
9 -10 0
9 -197 0
-9 197 10 0
-10 21 0
-10 165 0
10 -165 -21 0
11 -12 0
11 -199 0
-11 199 12 0
-12 31 0
-12 167 0
12 -167 -31 0
13 -14 0
13 -201 0
-13 201 14 0
-14 25 0
-14 169 0
14 -169 -25 0
15 -16 0
15 -203 0
-15 203 16 0
-16 33 0
-16 171 0
16 -171 -33 0
17 -18 0
17 -205 0
-17 205 18 0
-18 19 0
-18 173 0
18 -173 -19 0
19 -20 0
19 -72 0
-19 72 20 0
-20 69 0
-20 474 0
20 -474 -69 0
21 -22 0
21 -80 0
-21 80 22 0
-22 19 0
-22 75 0
22 -75 -19 0
23 -24 0
23 -96 0
-23 96 24 0
-24 21 0
-24 87 0
24 -87 -21 0
25 -26 0
25 -100 0
-25 100 26 0
-26 19 0
-26 89 0
26 -89 -19 0
27 -28 0
27 -128 0
-27 128 28 0
-28 23 0
-28 111 0
28 -111 -23 0
29 -30 0
29 -132 0
-29 132 30 0
-30 21 0
-30 113 0
30 -113 -21 0
31 -32 0
31 -136 0
-31 136 32 0
-32 25 0
-32 115 0
32 -115 -25 0
33 -34 0
33 -140 0
-33 140 34 0
-34 19 0
-34 117 0
34 -117 -19 0
35 -36 0
35 -84 0
-35 84 36 0
-36 77 0
-36 474 0
36 -474 -77 0
37 -38 0
37 -207 0
-37 207 38 0
-38 47 0
-38 175 0
38 -175 -47 0
39 -40 0
39 -209 0
-39 209 40 0
-40 45 0
-40 177 0
40 -177 -45 0
41 -42 0
41 -211 0
-41 211 42 0
-42 49 0
-42 179 0
42 -179 -49 0
43 -44 0
43 -213 0
-43 213 44 0
-44 35 0
-44 181 0
44 -181 -35 0
45 -46 0
45 -104 0
-45 104 46 0
-46 35 0
-46 91 0
46 -91 -35 0
47 -48 0
47 -144 0
-47 144 48 0
-48 45 0
-48 119 0
48 -119 -45 0
49 -50 0
49 -148 0
-49 148 50 0
-50 35 0
-50 121 0
50 -121 -35 0
51 -52 0
51 -215 0
-51 215 52 0
-52 57 0
-52 183 0
52 -183 -57 0
53 -54 0
53 -217 0
-53 217 54 0
-54 55 0
-54 185 0
54 -185 -55 0
55 -56 0
55 -108 0
-55 108 56 0
-56 93 0
-56 474 0
56 -474 -93 0
57 -58 0
57 -152 0
-57 152 58 0
-58 55 0
-58 123 0
58 -123 -55 0
59 -60 0
59 -219 0
-59 219 60 0
-60 63 0
-60 187 0
60 -187 -63 0
61 -62 0
61 -221 0
-61 221 62 0
-62 189 0
-62 474 0
62 -474 -189 0
63 -64 0
63 -156 0
-63 156 64 0
-64 125 0
-64 474 0
64 -474 -125 0
-65 68 0
-65 69 0
65 -69 -68 0
66 -67 0
66 -70 0
-66 70 67 0
-67 68 0
-67 72 0
67 -72 -68 0
-68 74 0
-68 75 0
68 -75 -74 0
-69 76 0
-69 77 0
69 -77 -76 0
70 -71 0
70 -78 0
-70 78 71 0
-71 74 0
-71 80 0
71 -80 -74 0
72 -73 0
72 -82 0
-72 82 73 0
-73 76 0
-73 84 0
73 -84 -76 0
-74 86 0
-74 87 0
74 -87 -86 0
-75 88 0
-75 89 0
75 -89 -88 0
-76 90 0
-76 91 0
76 -91 -90 0
-77 92 0
-77 93 0
77 -93 -92 0
78 -79 0
78 -94 0
-78 94 79 0
-79 86 0
-79 96 0
79 -96 -86 0
80 -81 0
80 -98 0
-80 98 81 0
-81 88 0
-81 100 0
81 -100 -88 0
82 -83 0
82 -102 0
-82 102 83 0
-83 90 0
-83 104 0
83 -104 -90 0
84 -85 0
84 -106 0
-84 106 85 0
-85 92 0
-85 108 0
85 -108 -92 0
-86 110 0
-86 111 0
86 -111 -110 0
-87 112 0
-87 113 0
87 -113 -112 0
-88 114 0
-88 115 0
88 -115 -114 0
-89 116 0
-89 117 0
89 -117 -116 0
-90 118 0
-90 119 0
90 -119 -118 0
-91 120 0
-91 121 0
91 -121 -120 0
-92 122 0
-92 123 0
92 -123 -122 0
-93 124 0
-93 125 0
93 -125 -124 0
94 -95 0
94 -126 0
-94 126 95 0
-95 110 0
-95 128 0
95 -128 -110 0
96 -97 0
96 -130 0
-96 130 97 0
-97 112 0
-97 132 0
97 -132 -112 0
98 -99 0
98 -134 0
-98 134 99 0
-99 114 0
-99 136 0
99 -136 -114 0
100 -101 0
100 -138 0
-100 138 101 0
-101 116 0
-101 140 0
101 -140 -116 0
102 -103 0
102 -142 0
-102 142 103 0
-103 118 0
-103 144 0
103 -144 -118 0
104 -105 0
104 -146 0
-104 146 105 0
-105 120 0
-105 148 0
105 -148 -120 0
106 -107 0
106 -150 0
-106 150 107 0
-107 122 0
-107 152 0
107 -152 -122 0
108 -109 0
108 -154 0
-108 154 109 0
-109 124 0
-109 156 0
109 -156 -124 0
-110 158 0
-110 159 0
110 -159 -158 0
-111 160 0
-111 161 0
111 -161 -160 0
-112 162 0
-112 163 0
112 -163 -162 0
-113 164 0
-113 165 0
113 -165 -164 0
-114 166 0
-114 167 0
114 -167 -166 0
-115 168 0
-115 169 0
115 -169 -168 0
-116 170 0
-116 171 0
116 -171 -170 0
-117 172 0
-117 173 0
117 -173 -172 0
-118 174 0
-118 175 0
118 -175 -174 0
-119 176 0
-119 177 0
119 -177 -176 0
-120 178 0
-120 179 0
120 -179 -178 0
-121 180 0
-121 181 0
121 -181 -180 0
-122 182 0
-122 183 0
122 -183 -182 0
-123 184 0
-123 185 0
123 -185 -184 0
-124 186 0
-124 187 0
124 -187 -186 0
-125 188 0
-125 189 0
125 -189 -188 0
126 -127 0
126 -190 0
-126 190 127 0
-127 158 0
-127 191 0
127 -191 -158 0
128 -129 0
128 -192 0
-128 192 129 0
-129 160 0
-129 193 0
129 -193 -160 0
130 -131 0
130 -194 0
-130 194 131 0
-131 162 0
-131 195 0
131 -195 -162 0
132 -133 0
132 -196 0
-132 196 133 0
-133 164 0
-133 197 0
133 -197 -164 0
134 -135 0
134 -198 0
-134 198 135 0
-135 166 0
-135 199 0
135 -199 -166 0
136 -137 0
136 -200 0
-136 200 137 0
-137 168 0
-137 201 0
137 -201 -168 0
138 -139 0
138 -202 0
-138 202 139 0
-139 170 0
-139 203 0
139 -203 -170 0
140 -141 0
140 -204 0
-140 204 141 0
-141 172 0
-141 205 0
141 -205 -172 0
142 -143 0
142 -206 0
-142 206 143 0
-143 174 0
-143 207 0
143 -207 -174 0
144 -145 0
144 -208 0
-144 208 145 0
-145 176 0
-145 209 0
145 -209 -176 0
146 -147 0
146 -210 0
-146 210 147 0
-147 178 0
-147 211 0
147 -211 -178 0
148 -149 0
148 -212 0
-148 212 149 0
-149 180 0
-149 213 0
149 -213 -180 0
150 -151 0
150 -214 0
-150 214 151 0
-151 182 0
-151 215 0
151 -215 -182 0
152 -153 0
152 -216 0
-152 216 153 0
-153 184 0
-153 217 0
153 -217 -184 0
154 -155 0
154 -218 0
-154 218 155 0
-155 186 0
-155 219 0
155 -219 -186 0
156 -157 0
156 -220 0
-156 220 157 0
-157 188 0
-157 221 0
157 -221 -188 0
158 224 -222 0
158 -224 222 0
-158 224 222 0
-158 -224 -222 0
159 232 -230 0
159 -232 230 0
-159 232 230 0
-159 -232 -230 0
160 240 -238 0
160 -240 238 0
-160 240 238 0
-160 -240 -238 0
161 248 -246 0
161 -248 246 0
-161 248 246 0
-161 -248 -246 0
162 256 -254 0
162 -256 254 0
-162 256 254 0
-162 -256 -254 0
163 264 -262 0
163 -264 262 0
-163 264 262 0
-163 -264 -262 0
164 272 -270 0
164 -272 270 0
-164 272 270 0
-164 -272 -270 0
165 280 -278 0
165 -280 278 0
-165 280 278 0
-165 -280 -278 0
166 288 -286 0
166 -288 286 0
-166 288 286 0
-166 -288 -286 0
167 296 -294 0
167 -296 294 0
-167 296 294 0
-167 -296 -294 0
168 304 -302 0
168 -304 302 0
-168 304 302 0
-168 -304 -302 0
169 312 -310 0
169 -312 310 0
-169 312 310 0
-169 -312 -310 0
170 320 -318 0
170 -320 318 0
-170 320 318 0
-170 -320 -318 0
171 328 -326 0
171 -328 326 0
-171 328 326 0
-171 -328 -326 0
172 336 -334 0
172 -336 334 0
-172 336 334 0
-172 -336 -334 0
173 344 -342 0
173 -344 342 0
-173 344 342 0
-173 -344 -342 0
174 352 -350 0
174 -352 350 0
-174 352 350 0
-174 -352 -350 0
175 360 -358 0
175 -360 358 0
-175 360 358 0
-175 -360 -358 0
176 368 -366 0
176 -368 366 0
-176 368 366 0
-176 -368 -366 0
177 376 -374 0
177 -376 374 0
-177 376 374 0
-177 -376 -374 0
178 384 -382 0
178 -384 382 0
-178 384 382 0
-178 -384 -382 0
179 392 -390 0
179 -392 390 0
-179 392 390 0
-179 -392 -390 0
180 400 -398 0
180 -400 398 0
-180 400 398 0
-180 -400 -398 0
181 408 -406 0
181 -408 406 0
-181 408 406 0
-181 -408 -406 0
182 416 -414 0
182 -416 414 0
-182 416 414 0
-182 -416 -414 0
183 424 -422 0
183 -424 422 0
-183 424 422 0
-183 -424 -422 0
184 432 -430 0
184 -432 430 0
-184 432 430 0
-184 -432 -430 0
185 440 -438 0
185 -440 438 0
-185 440 438 0
-185 -440 -438 0
186 448 -446 0
186 -448 446 0
-186 448 446 0
-186 -448 -446 0
187 456 -454 0
187 -456 454 0
-187 456 454 0
-187 -456 -454 0
188 464 -462 0
188 -464 462 0
-188 464 462 0
-188 -464 -462 0
189 472 -470 0
189 -472 470 0
-189 472 470 0
-189 -472 -470 0
-190 222 0
-190 224 0
190 -224 -222 0
-191 230 0
-191 232 0
191 -232 -230 0
-192 238 0
-192 240 0
192 -240 -238 0
-193 246 0
-193 248 0
193 -248 -246 0
-194 254 0
-194 256 0
194 -256 -254 0
-195 262 0
-195 264 0
195 -264 -262 0
-196 270 0
-196 272 0
196 -272 -270 0
-197 278 0
-197 280 0
197 -280 -278 0
-198 286 0
-198 288 0
198 -288 -286 0
-199 294 0
-199 296 0
199 -296 -294 0
-200 302 0
-200 304 0
200 -304 -302 0
-201 310 0
-201 312 0
201 -312 -310 0
-202 318 0
-202 320 0
202 -320 -318 0
-203 326 0
-203 328 0
203 -328 -326 0
-204 334 0
-204 336 0
204 -336 -334 0
-205 342 0
-205 344 0
205 -344 -342 0
-206 350 0
-206 352 0
206 -352 -350 0
-207 358 0
-207 360 0
207 -360 -358 0
-208 366 0
-208 368 0
208 -368 -366 0
-209 374 0
-209 376 0
209 -376 -374 0
-210 382 0
-210 384 0
210 -384 -382 0
-211 390 0
-211 392 0
211 -392 -390 0
-212 398 0
-212 400 0
212 -400 -398 0
-213 406 0
-213 408 0
213 -408 -406 0
-214 414 0
-214 416 0
214 -416 -414 0
-215 422 0
-215 424 0
215 -424 -422 0
-216 430 0
-216 432 0
216 -432 -430 0
-217 438 0
-217 440 0
217 -440 -438 0
-218 446 0
-218 448 0
218 -448 -446 0
-219 454 0
-219 456 0
219 -456 -454 0
-220 462 0
-220 464 0
220 -464 -462 0
-221 470 0
-221 472 0
221 -472 -470 0
222 474 -223 0
222 -474 223 0
-222 474 223 0
-222 -474 -223 0
225 226 -158 0
225 -226 158 0
-225 226 158 0
-225 -226 -158 0
226 -227 0
226 -229 0
-226 229 227 0
227 -191 0
227 -228 0
-227 228 191 0
-228 232 0
-228 234 0
228 -234 -232 0
-229 230 0
-229 234 0
229 -234 -230 0
230 474 -231 0
230 -474 231 0
-230 474 231 0
-230 -474 -231 0
233 234 -159 0
233 -234 159 0
-233 234 159 0
-233 -234 -159 0
234 -235 0
234 -237 0
-234 237 235 0
235 -192 0
235 -236 0
-235 236 192 0
-236 240 0
-236 242 0
236 -242 -240 0
-237 238 0
-237 242 0
237 -242 -238 0
238 474 -239 0
238 -474 239 0
-238 474 239 0
-238 -474 -239 0
241 242 -160 0
241 -242 160 0
-241 242 160 0
-241 -242 -160 0
242 -243 0
242 -245 0
-242 245 243 0
243 -193 0
243 -244 0
-243 244 193 0
-244 248 0
-244 250 0
244 -250 -248 0
-245 246 0
-245 250 0
245 -250 -246 0
246 474 -247 0
246 -474 247 0
-246 474 247 0
-246 -474 -247 0
249 250 -161 0
249 -250 161 0
-249 250 161 0
-249 -250 -161 0
250 -251 0
250 -253 0
-250 253 251 0
251 -194 0
251 -252 0
-251 252 194 0
-252 256 0
-252 258 0
252 -258 -256 0
-253 254 0
-253 258 0
253 -258 -254 0
254 474 -255 0
254 -474 255 0
-254 474 255 0
-254 -474 -255 0
257 258 -162 0
257 -258 162 0
-257 258 162 0
-257 -258 -162 0
258 -259 0
258 -261 0
-258 261 259 0
259 -195 0
259 -260 0
-259 260 195 0
-260 264 0
-260 266 0
260 -266 -264 0
-261 262 0
-261 266 0
261 -266 -262 0
262 474 -263 0
262 -474 263 0
-262 474 263 0
-262 -474 -263 0
265 266 -163 0
265 -266 163 0
-265 266 163 0
-265 -266 -163 0
266 -267 0
266 -269 0
-266 269 267 0
267 -196 0
267 -268 0
-267 268 196 0
-268 272 0
-268 274 0
268 -274 -272 0
-269 270 0
-269 274 0
269 -274 -270 0
270 474 -271 0
270 -474 271 0
-270 474 271 0
-270 -474 -271 0
273 274 -164 0
273 -274 164 0
-273 274 164 0
-273 -274 -164 0
274 -275 0
274 -277 0
-274 277 275 0
275 -197 0
275 -276 0
-275 276 197 0
-276 280 0
-276 282 0
276 -282 -280 0
-277 278 0
-277 282 0
277 -282 -278 0
278 474 -279 0
278 -474 279 0
-278 474 279 0
-278 -474 -279 0
281 282 -165 0
281 -282 165 0
-281 282 165 0
-281 -282 -165 0
282 -283 0
282 -285 0
-282 285 283 0
283 -198 0
283 -284 0
-283 284 198 0
-284 288 0
-284 290 0
284 -290 -288 0
-285 286 0
-285 290 0
285 -290 -286 0
286 474 -287 0
286 -474 287 0
-286 474 287 0
-286 -474 -287 0
289 290 -166 0
289 -290 166 0
-289 290 166 0
-289 -290 -166 0
290 -291 0
290 -293 0
-290 293 291 0
291 -199 0
291 -292 0
-291 292 199 0
-292 296 0
-292 298 0
292 -298 -296 0
-293 294 0
-293 298 0
293 -298 -294 0
294 474 -295 0
294 -474 295 0
-294 474 295 0
-294 -474 -295 0
297 298 -167 0
297 -298 167 0
-297 298 167 0
-297 -298 -167 0
298 -299 0
298 -301 0
-298 301 299 0
299 -200 0
299 -300 0
-299 300 200 0
-300 304 0
-300 306 0
300 -306 -304 0
-301 302 0
-301 306 0
301 -306 -302 0
302 474 -303 0
302 -474 303 0
-302 474 303 0
-302 -474 -303 0
305 306 -168 0
305 -306 168 0
-305 306 168 0
-305 -306 -168 0
306 -307 0
306 -309 0
-306 309 307 0
307 -201 0
307 -308 0
-307 308 201 0
-308 312 0
-308 314 0
308 -314 -312 0
-309 310 0
-309 314 0
309 -314 -310 0
310 474 -311 0
310 -474 311 0
-310 474 311 0
-310 -474 -311 0
313 314 -169 0
313 -314 169 0
-313 314 169 0
-313 -314 -169 0
314 -315 0
314 -317 0
-314 317 315 0
315 -202 0
315 -316 0
-315 316 202 0
-316 320 0
-316 322 0
316 -322 -320 0
-317 318 0
-317 322 0
317 -322 -318 0
318 474 -319 0
318 -474 319 0
-318 474 319 0
-318 -474 -319 0
321 322 -170 0
321 -322 170 0
-321 322 170 0
-321 -322 -170 0
322 -323 0
322 -325 0
-322 325 323 0
323 -203 0
323 -324 0
-323 324 203 0
-324 328 0
-324 330 0
324 -330 -328 0
-325 326 0
-325 330 0
325 -330 -326 0
326 474 -327 0
326 -474 327 0
-326 474 327 0
-326 -474 -327 0
329 330 -171 0
329 -330 171 0
-329 330 171 0
-329 -330 -171 0
330 -331 0
330 -333 0
-330 333 331 0
331 -204 0
331 -332 0
-331 332 204 0
-332 336 0
-332 338 0
332 -338 -336 0
-333 334 0
-333 338 0
333 -338 -334 0
334 474 -335 0
334 -474 335 0
-334 474 335 0
-334 -474 -335 0
337 338 -172 0
337 -338 172 0
-337 338 172 0
-337 -338 -172 0
338 -339 0
338 -341 0
-338 341 339 0
339 -205 0
339 -340 0
-339 340 205 0
-340 344 0
-340 346 0
340 -346 -344 0
-341 342 0
-341 346 0
341 -346 -342 0
342 474 -343 0
342 -474 343 0
-342 474 343 0
-342 -474 -343 0
345 346 -173 0
345 -346 173 0
-345 346 173 0
-345 -346 -173 0
346 -347 0
346 -349 0
-346 349 347 0
347 -206 0
347 -348 0
-347 348 206 0
-348 352 0
-348 354 0
348 -354 -352 0
-349 350 0
-349 354 0
349 -354 -350 0
350 474 -351 0
350 -474 351 0
-350 474 351 0
-350 -474 -351 0
353 354 -174 0
353 -354 174 0
-353 354 174 0
-353 -354 -174 0
354 -355 0
354 -357 0
-354 357 355 0
355 -207 0
355 -356 0
-355 356 207 0
-356 360 0
-356 362 0
356 -362 -360 0
-357 358 0
-357 362 0
357 -362 -358 0
358 474 -359 0
358 -474 359 0
-358 474 359 0
-358 -474 -359 0
361 362 -175 0
361 -362 175 0
-361 362 175 0
-361 -362 -175 0
362 -363 0
362 -365 0
-362 365 363 0
363 -208 0
363 -364 0
-363 364 208 0
-364 368 0
-364 370 0
364 -370 -368 0
-365 366 0
-365 370 0
365 -370 -366 0
366 474 -367 0
366 -474 367 0
-366 474 367 0
-366 -474 -367 0
369 370 -176 0
369 -370 176 0
-369 370 176 0
-369 -370 -176 0
370 -371 0
370 -373 0
-370 373 371 0
371 -209 0
371 -372 0
-371 372 209 0
-372 376 0
-372 378 0
372 -378 -376 0
-373 374 0
-373 378 0
373 -378 -374 0
374 474 -375 0
374 -474 375 0
-374 474 375 0
-374 -474 -375 0
377 378 -177 0
377 -378 177 0
-377 378 177 0
-377 -378 -177 0
378 -379 0
378 -381 0
-378 381 379 0
379 -210 0
379 -380 0
-379 380 210 0
-380 384 0
-380 386 0
380 -386 -384 0
-381 382 0
-381 386 0
381 -386 -382 0
382 474 -383 0
382 -474 383 0
-382 474 383 0
-382 -474 -383 0
385 386 -178 0
385 -386 178 0
-385 386 178 0
-385 -386 -178 0
386 -387 0
386 -389 0
-386 389 387 0
387 -211 0
387 -388 0
-387 388 211 0
-388 392 0
-388 394 0
388 -394 -392 0
-389 390 0
-389 394 0
389 -394 -390 0
390 474 -391 0
390 -474 391 0
-390 474 391 0
-390 -474 -391 0
393 394 -179 0
393 -394 179 0
-393 394 179 0
-393 -394 -179 0
394 -395 0
394 -397 0
-394 397 395 0
395 -212 0
395 -396 0
-395 396 212 0
-396 400 0
-396 402 0
396 -402 -400 0
-397 398 0
-397 402 0
397 -402 -398 0
398 474 -399 0
398 -474 399 0
-398 474 399 0
-398 -474 -399 0
401 402 -180 0
401 -402 180 0
-401 402 180 0
-401 -402 -180 0
402 -403 0
402 -405 0
-402 405 403 0
403 -213 0
403 -404 0
-403 404 213 0
-404 408 0
-404 410 0
404 -410 -408 0
-405 406 0
-405 410 0
405 -410 -406 0
406 474 -407 0
406 -474 407 0
-406 474 407 0
-406 -474 -407 0
409 410 -181 0
409 -410 181 0
-409 410 181 0
-409 -410 -181 0
410 -411 0
410 -413 0
-410 413 411 0
411 -214 0
411 -412 0
-411 412 214 0
-412 416 0
-412 418 0
412 -418 -416 0
-413 414 0
-413 418 0
413 -418 -414 0
414 474 -415 0
414 -474 415 0
-414 474 415 0
-414 -474 -415 0
417 418 -182 0
417 -418 182 0
-417 418 182 0
-417 -418 -182 0
418 -419 0
418 -421 0
-418 421 419 0
419 -215 0
419 -420 0
-419 420 215 0
-420 424 0
-420 426 0
420 -426 -424 0
-421 422 0
-421 426 0
421 -426 -422 0
422 474 -423 0
422 -474 423 0
-422 474 423 0
-422 -474 -423 0
425 426 -183 0
425 -426 183 0
-425 426 183 0
-425 -426 -183 0
426 -427 0
426 -429 0
-426 429 427 0
427 -216 0
427 -428 0
-427 428 216 0
-428 432 0
-428 434 0
428 -434 -432 0
-429 430 0
-429 434 0
429 -434 -430 0
430 474 -431 0
430 -474 431 0
-430 474 431 0
-430 -474 -431 0
433 434 -184 0
433 -434 184 0
-433 434 184 0
-433 -434 -184 0
434 -435 0
434 -437 0
-434 437 435 0
435 -217 0
435 -436 0
-435 436 217 0
-436 440 0
-436 442 0
436 -442 -440 0
-437 438 0
-437 442 0
437 -442 -438 0
438 474 -439 0
438 -474 439 0
-438 474 439 0
-438 -474 -439 0
441 442 -185 0
441 -442 185 0
-441 442 185 0
-441 -442 -185 0
442 -443 0
442 -445 0
-442 445 443 0
443 -218 0
443 -444 0
-443 444 218 0
-444 448 0
-444 450 0
444 -450 -448 0
-445 446 0
-445 450 0
445 -450 -446 0
446 474 -447 0
446 -474 447 0
-446 474 447 0
-446 -474 -447 0
449 450 -186 0
449 -450 186 0
-449 450 186 0
-449 -450 -186 0
450 -451 0
450 -453 0
-450 453 451 0
451 -219 0
451 -452 0
-451 452 219 0
-452 456 0
-452 458 0
452 -458 -456 0
-453 454 0
-453 458 0
453 -458 -454 0
454 474 -455 0
454 -474 455 0
-454 474 455 0
-454 -474 -455 0
457 458 -187 0
457 -458 187 0
-457 458 187 0
-457 -458 -187 0
458 -459 0
458 -461 0
-458 461 459 0
459 -220 0
459 -460 0
-459 460 220 0
-460 464 0
-460 466 0
460 -466 -464 0
-461 462 0
-461 466 0
461 -466 -462 0
462 474 -463 0
462 -474 463 0
-462 474 463 0
-462 -474 -463 0
465 466 -188 0
465 -466 188 0
-465 466 188 0
-465 -466 -188 0
466 -467 0
466 -469 0
-466 469 467 0
467 -221 0
467 -468 0
-467 468 221 0
-468 472 0
-468 474 0
468 -474 -472 0
-469 470 0
-469 474 0
469 -474 -470 0
470 474 -471 0
470 -474 471 0
-470 474 471 0
-470 -474 -471 0
473 474 -189 0
473 -474 189 0
-473 474 189 0
-473 -474 -189 0